4 175 169 163 157 151 145 139 133 127 121 115 109 103 97 91 85 79 73 67 61 55 49 43 37 31 25 19 13 7 1 195 188 181 173 165 156 148 140 131 123 114 106 98 89 81 72 64 56 47 39 30 22 14 6 197 187 178 167 155 144 134 122 111 100 88 77 66 54 44 33 21 11 199 186 174 160 146 130 117 102 87 74 59 45 29 16 2 189 171 153 136 118 99 82 63 46 27 10 192 172 150 128 107 84 62 40 20 196 176 147 120 94 69 41 17 190 161 129 96 68 35 5 177 138 104 65 32 193 154 112 71 28 184 141 92 50 198 143 90 38 182 124 58 3 137 75 8 132 57 180 101 18 126 42 152 51 149 34 116 0 83 159 12 76 110 164 183 194 179 191 166 119 78 23 108 15 80 70 93 60 113 170 185 95 162 24 36 135 125 158 105 26 168 142 86 53 52 48 9 

